5

0   15   5   15   25
15   0   13   25   1
5   13   0   4   13
15   25   4   0   0
25   1   13   0   0

0   55   20   76   30
55   0   35   21   27
20   35   0   56   14
76   21   56   0   48
30   27   14  48   0